
Gurobi 9.5.2 (win64) logging started Mon Mar 27 20:27:27 2023

Set parameter LogFile to value "2023-03-27_20hr-25min-09sec/Nodes30_Arcs45_LocNodes22/Formulation-2Instance-5.log"
Set parameter TimeLimit to value 600
Set parameter IntFeasTol to value 1e-09
Set parameter DualReductions to value 0
Set parameter NonConvex to value 2
Gurobi Optimizer version 9.5.2 build v9.5.2rc0 (win64)
Thread count: 4 physical cores, 8 logical processors, using up to 8 threads
Optimize a model with 128 rows, 224 columns and 478 nonzeros
Model fingerprint: 0xadc463b9
Model has 75 quadratic objective terms
Model has 75 SOS constraints
Variable types: 202 continuous, 22 integer (22 binary)
Coefficient statistics:
  Matrix range     [5e-02, 2e+02]
  Objective range  [2e-02, 1e+03]
  QObjective range [1e-01, 8e+00]
  Bounds range     [1e+00, 1e+00]
  RHS range        [2e-02, 2e+03]
Presolve removed 9 rows and 9 columns
Presolve time: 0.00s
Presolved: 119 rows, 215 columns, 465 nonzeros
Presolved model has 74 SOS constraint(s)
Presolved model has 74 quadratic objective terms
Variable types: 193 continuous, 22 integer (22 binary)

Root relaxation: objective 6.639733e+05, 280 iterations, 0.00 seconds (0.00 work units)

    Nodes    |    Current Node    |     Objective Bounds      |     Work
 Expl Unexpl |  Obj  Depth IntInf | Incumbent    BestBd   Gap | It/Node Time

     0     0 663973.316    0    5          - 663973.316      -     -    0s
H    0     0                    663784.19877 663973.316  0.03%     -    0s

Cutting planes:
  MIR: 1

Explored 1 nodes (280 simplex iterations) in 0.06 seconds (0.01 work units)
Thread count was 8 (of 8 available processors)

Solution count 1: 663784 

Optimal solution found (tolerance 1.00e-04)
Best objective 6.637841987724e+05, best bound 6.638436665565e+05, gap 0.0090%

User-callback calls 213, time in user-callback 0.00 sec
